c Generated by CellRouter, look at JSON variable remapping
p cnf 200 1378
-18 -58 0 
150 0 
-134 0 
-153 -84 0 
-29 -174 0 
-186 -81 0 
-94 -68 0 
-111 -38 0 
-194 -19 0 
-28 -159 0 
-107 -108 0 
-91 -189 0 
-130 -119 0 
-112 -12 0 
-53 -5 0 
-160 -167 0 
-1 -103 0 
-83 -98 0 
-185 -97 0 
-102 -158 0 
-145 -115 0 
-104 -157 0 
-149 -6 0 
-20 -196 0 
-46 -146 0 
-163 -140 0 
-147 -131 0 
99 0 
-162 0 
-120 0 
10 0 
-127 -175 0 
-128 -25 0 
-76 -170 0 
-60 -36 0 
-116 -144 0 
-13 -52 0 
-101 -176 0 
-77 -2 0 
-195 -179 0 
-166 -66 0 
-117 -87 0 
-95 -7 0 
-178 -121 0 
-70 -110 0 
-75 -16 0 
-51 -45 0 
-22 -180 0 
-62 -63 0 
-89 -152 0 
-44 -56 0 
-132 -92 0 
-69 -17 0 
-181 -8 0 
-26 -123 0 
-100 -168 0 
-86 -50 0 
-57 -37 0 
-200 -14 0 
-74 -193 0 
-55 -138 0 
-199 -59 0 
-188 -71 0 
-173 -187 0 
-182 -65 0 
-141 -54 0 
-142 -21 0 
-30 -169 0 
-73 -139 0 
-11 -156 0 
-151 -155 0 
-48 -122 0 
-85 -161 0 
-126 -78 0 
-109 -198 0 
-23 -61 0 
-106 -177 0 
-64 0 
33 0 
-34 -171 0 
-184 -165 0 
-197 -154 0 
-9 -124 0 
-43 -93 0 
-67 -39 0 
-136 -135 0 
-164 -32 0 
-82 -113 0 
-143 -88 0 
-191 -183 0 
-80 -72 0 
-105 -90 0 
-190 -148 0 
-42 -49 0 
-3 -96 0 
-129 -27 0 
-172 -24 0 
-40 -114 0 
-79 -137 0 
-118 -4 0 
-15 -133 0 
-35 -192 0 
-125 -31 0 
-41 -47 0 
-18 125 83 0 
-18 166 83 0 
-18 166 125 0 
-18 -166 -125 -83 0 
-58 31 98 0 
-58 66 98 0 
-58 66 31 0 
-58 -66 -31 -98 0 
141 30 0 
-141 -30 0 
-153 145 105 89 0 
-153 60 105 89 0 
-153 60 145 89 0 
-153 60 145 105 0 
-153 -145 -105 -89 0 
-153 -60 -105 -89 0 
-153 -60 -145 -89 0 
-153 -60 -145 -105 0 
-84 115 90 152 0 
-84 36 90 152 0 
-84 36 115 152 0 
-84 36 115 90 0 
-84 -115 -90 -152 0 
-84 -36 -90 -152 0 
-84 -36 -115 -152 0 
-84 -36 -115 -90 0 
-29 13 23 111 0 
-29 127 23 111 0 
-29 127 13 111 0 
-29 127 13 23 0 
-29 -13 -23 -111 0 
-29 -127 -23 -111 0 
-29 -127 -13 -111 0 
-29 -127 -13 -23 0 
-174 52 61 38 0 
-174 175 61 38 0 
-174 175 52 38 0 
-174 175 52 61 0 
-174 -52 -61 -38 0 
-174 -175 -61 -38 0 
-174 -175 -52 -38 0 
-174 -175 -52 -61 0 
-186 85 151 101 0 
-186 147 151 101 0 
-186 147 85 101 0 
-186 147 85 151 0 
-186 -85 -151 -101 0 
-186 -147 -151 -101 0 
-186 -147 -85 -101 0 
-186 -147 -85 -151 0 
-81 161 155 176 0 
-81 131 155 176 0 
-81 131 161 176 0 
-81 131 161 155 0 
-81 -161 -155 -176 0 
-81 -131 -155 -176 0 
-81 -131 -161 -176 0 
-81 -131 -161 -155 0 
-94 89 41 0 
-94 60 41 0 
-94 60 89 0 
-94 -60 -89 -41 0 
-68 152 47 0 
-68 36 47 0 
-68 36 152 0 
-68 -36 -152 -47 0 
-111 29 147 11 0 
-111 194 147 11 0 
-111 194 29 11 0 
-111 194 29 147 0 
-111 -29 -147 -11 0 
-111 -194 -147 -11 0 
-111 -194 -29 -11 0 
-111 -194 -29 -147 0 
-38 174 131 156 0 
-38 19 131 156 0 
-38 19 174 156 0 
-38 19 174 131 0 
-38 -174 -131 -156 0 
-38 -19 -131 -156 0 
-38 -19 -174 -156 0 
-38 -19 -174 -131 0 
-194 111 95 0 
-194 127 95 0 
-194 127 111 0 
-194 -127 -111 -95 0 
-19 38 7 0 
-19 175 7 0 
-19 175 38 0 
-19 -175 -38 -7 0 
-28 22 163 34 0 
-28 142 163 34 0 
-28 142 22 34 0 
-28 142 22 163 0 
-28 -22 -163 -34 0 
-28 -142 -163 -34 0 
-28 -142 -22 -34 0 
-28 -142 -22 -163 0 
-159 180 140 171 0 
-159 21 140 171 0 
-159 21 180 171 0 
-159 21 180 140 0 
-159 -180 -140 -171 0 
-159 -21 -140 -171 0 
-159 -21 -180 -171 0 
-159 -21 -180 -140 0 
-107 132 35 0 
-107 130 35 0 
-107 130 132 0 
-107 -130 -132 -35 0 
-108 92 192 0 
-108 119 192 0 
-108 119 92 0 
-108 -119 -92 -192 0 
-91 34 42 104 0 
-91 3 42 104 0 
-91 3 34 104 0 
-91 3 34 42 0 
-91 -34 -42 -104 0 
-91 -3 -42 -104 0 
-91 -3 -34 -104 0 
-91 -3 -34 -42 0 
-189 171 49 157 0 
-189 96 49 157 0 
-189 96 171 157 0 
-189 96 171 49 0 
-189 -171 -49 -157 0 
-189 -96 -49 -157 0 
-189 -96 -171 -157 0 
-189 -96 -171 -49 0 
-130 178 107 181 0 
-130 182 107 181 0 
-130 182 178 181 0 
-130 182 178 107 0 
-130 -178 -107 -181 0 
-130 -182 -107 -181 0 
-130 -182 -178 -181 0 
-130 -182 -178 -107 0 
-119 121 108 8 0 
-119 65 108 8 0 
-119 65 121 8 0 
-119 65 121 108 0 
-119 -121 -108 -8 0 
-119 -65 -108 -8 0 
-119 -65 -121 -8 0 
-119 -65 -121 -108 0 
-112 142 34 3 0 
-112 1 34 3 0 
-112 1 142 3 0 
-112 1 142 34 0 
-112 -142 -34 -3 0 
-112 -1 -34 -3 0 
-112 -1 -142 -3 0 
-112 -1 -142 -34 0 
-12 21 171 96 0 
-12 103 171 96 0 
-12 103 21 96 0 
-12 103 21 171 0 
-12 -21 -171 -96 0 
-12 -103 -171 -96 0 
-12 -103 -21 -96 0 
-12 -103 -21 -171 0 
-53 42 184 48 0 
-53 104 184 48 0 
-53 104 42 48 0 
-53 104 42 184 0 
-53 -42 -184 -48 0 
-53 -104 -184 -48 0 
-53 -104 -42 -48 0 
-53 -104 -42 -184 0 
-5 49 165 122 0 
-5 157 165 122 0 
-5 157 49 122 0 
-5 157 49 165 0 
-5 -49 -165 -122 0 
-5 -157 -165 -122 0 
-5 -157 -49 -122 0 
-5 -157 -49 -165 0 
-160 166 83 86 0 
-160 163 83 86 0 
-160 163 166 86 0 
-160 163 166 83 0 
-160 -166 -83 -86 0 
-160 -163 -83 -86 0 
-160 -163 -166 -86 0 
-160 -163 -166 -83 0 
-167 66 98 50 0 
-167 140 98 50 0 
-167 140 66 50 0 
-167 140 66 98 0 
-167 -66 -98 -50 0 
-167 -140 -98 -50 0 
-167 -140 -66 -50 0 
-167 -140 -66 -98 0 
-1 128 112 120 0 
-1 75 112 120 0 
-1 75 128 120 0 
-1 75 128 112 0 
-1 -128 -112 -120 0 
-1 -75 -112 -120 0 
-1 -75 -128 -120 0 
-1 -75 -128 -112 0 
-103 25 12 10 0 
-103 16 12 10 0 
-103 16 25 10 0 
-103 16 25 12 0 
-103 -25 -12 -10 0 
-103 -16 -12 -10 0 
-103 -16 -25 -10 0 
-103 -16 -25 -12 0 
-83 18 188 0 
-83 160 188 0 
-83 160 18 0 
-83 -160 -18 -188 0 
-98 58 71 0 
-98 167 71 0 
-98 167 58 0 
-98 -167 -58 -71 0 
-185 86 20 184 0 
-185 42 20 184 0 
-185 42 86 184 0 
-185 42 86 20 0 
-185 -86 -20 -184 0 
-185 -42 -20 -184 0 
-185 -42 -86 -184 0 
-185 -42 -86 -20 0 
-97 50 196 165 0 
-97 49 196 165 0 
-97 49 50 165 0 
-97 49 50 196 0 
-97 -50 -196 -165 0 
-97 -49 -196 -165 0 
-97 -49 -50 -165 0 
-97 -49 -50 -196 0 
-102 136 22 142 0 
-102 199 22 142 0 
-102 199 136 142 0 
-102 199 136 22 0 
-102 -136 -22 -142 0 
-102 -199 -22 -142 0 
-102 -199 -136 -142 0 
-102 -199 -136 -22 0 
-158 135 180 21 0 
-158 59 180 21 0 
-158 59 135 21 0 
-158 59 135 180 0 
-158 -135 -180 -21 0 
-158 -59 -180 -21 0 
-158 -59 -135 -21 0 
-158 -59 -135 -180 0 
-145 141 191 153 0 
-145 30 191 153 0 
-145 30 141 153 0 
-145 30 141 191 0 
-145 -141 -191 -153 0 
-145 -30 -191 -153 0 
-145 -30 -141 -153 0 
-145 -30 -141 -191 0 
-115 54 183 84 0 
-115 169 183 84 0 
-115 169 54 84 0 
-115 169 54 183 0 
-115 -54 -183 -84 0 
-115 -169 -183 -84 0 
-115 -169 -54 -84 0 
-115 -169 -54 -183 0 
-104 91 53 200 0 
-104 55 53 200 0 
-104 55 91 200 0 
-104 55 91 53 0 
-104 -91 -53 -200 0 
-104 -55 -53 -200 0 
-104 -55 -91 -200 0 
-104 -55 -91 -53 0 
-157 189 5 14 0 
-157 138 5 14 0 
-157 138 189 14 0 
-157 138 189 5 0 
-157 -189 -5 -14 0 
-157 -138 -5 -14 0 
-157 -138 -189 -14 0 
-157 -138 -189 -5 0 
-149 120 55 151 0 
-149 85 55 151 0 
-149 85 120 151 0 
-149 85 120 55 0 
-149 -120 -55 -151 0 
-149 -85 -55 -151 0 
-149 -85 -120 -151 0 
-149 -85 -120 -55 0 
-6 10 138 155 0 
-6 161 138 155 0 
-6 161 10 155 0 
-6 161 10 138 0 
-6 -10 -138 -155 0 
-6 -161 -138 -155 0 
-6 -161 -10 -155 0 
-6 -161 -10 -138 0 
-20 188 46 0 
-20 185 46 0 
-20 185 188 0 
-20 -185 -188 -46 0 
-196 71 146 0 
-196 97 146 0 
-196 97 71 0 
-196 -97 -71 -146 0 
-46 20 143 0 
-46 184 143 0 
-46 184 20 0 
-46 -184 -20 -143 0 
-146 196 88 0 
-146 165 88 0 
-146 165 196 0 
-146 -165 -196 -88 0 
-163 77 160 164 0 
-163 28 160 164 0 
-163 28 77 164 0 
-163 28 77 160 0 
-163 -77 -160 -164 0 
-163 -28 -160 -164 0 
-163 -28 -77 -164 0 
-163 -28 -77 -160 0 
-140 2 167 32 0 
-140 159 167 32 0 
-140 159 2 32 0 
-140 159 2 167 0 
-140 -2 -167 -32 0 
-140 -159 -167 -32 0 
-140 -159 -2 -32 0 
-140 -159 -2 -167 0 
-147 23 186 51 0 
-147 111 186 51 0 
-147 111 23 51 0 
-147 111 23 186 0 
-147 -23 -186 -51 0 
-147 -111 -186 -51 0 
-147 -111 -23 -51 0 
-147 -111 -23 -186 0 
-131 61 81 45 0 
-131 38 81 45 0 
-131 38 61 45 0 
-131 38 61 81 0 
-131 -61 -81 -45 0 
-131 -38 -81 -45 0 
-131 -38 -61 -45 0 
-131 -38 -61 -81 0 
190 197 0 
-190 -197 0 
17 103 96 6 0 
-96 -6 0 
-103 -6 0 
-103 -96 0 
-17 -6 0 
-17 -96 0 
-17 -103 0 
-127 29 194 0 
-127 41 194 0 
-127 41 29 0 
-127 -41 -29 -194 0 
-175 174 19 0 
-175 47 19 0 
-175 47 174 0 
-175 -47 -174 -19 0 
-128 199 142 1 0 
-128 126 142 1 0 
-128 126 199 1 0 
-128 126 199 142 0 
-128 -199 -142 -1 0 
-128 -126 -142 -1 0 
-128 -126 -199 -1 0 
-128 -126 -199 -142 0 
-25 59 21 103 0 
-25 78 21 103 0 
-25 78 59 103 0 
-25 78 59 21 0 
-25 -59 -21 -103 0 
-25 -78 -21 -103 0 
-25 -78 -59 -103 0 
-25 -78 -59 -21 0 
-76 151 64 195 0 
-76 101 64 195 0 
-76 101 151 195 0 
-76 101 151 64 0 
-76 -151 -64 -195 0 
-76 -101 -64 -195 0 
-76 -101 -151 -195 0 
-76 -101 -151 -64 0 
-170 155 33 179 0 
-170 176 33 179 0 
-170 176 155 179 0 
-170 176 155 33 0 
-170 -155 -33 -179 0 
-170 -176 -33 -179 0 
-170 -176 -155 -179 0 
-170 -176 -155 -33 0 
-60 153 94 0 
-60 30 94 0 
-60 30 153 0 
-60 -30 -153 -94 0 
-36 84 68 0 
-36 169 68 0 
-36 169 84 0 
-36 -169 -84 -68 0 
-116 48 178 182 0 
-116 118 178 182 0 
-116 118 48 182 0 
-116 118 48 178 0 
-116 -48 -178 -182 0 
-116 -118 -178 -182 0 
-116 -118 -48 -182 0 
-116 -118 -48 -178 0 
-144 122 121 65 0 
-144 4 121 65 0 
-144 4 122 65 0 
-144 4 122 121 0 
-144 -122 -121 -65 0 
-144 -4 -121 -65 0 
-144 -4 -122 -65 0 
-144 -4 -122 -121 0 
-13 89 70 29 0 
-13 41 70 29 0 
-13 41 89 29 0 
-13 41 89 70 0 
-13 -89 -70 -29 0 
-13 -41 -70 -29 0 
-13 -41 -89 -29 0 
-13 -41 -89 -70 0 
-52 152 110 174 0 
-52 47 110 174 0 
-52 47 152 174 0 
-52 47 152 110 0 
-52 -152 -110 -174 0 
-52 -47 -110 -174 0 
-52 -47 -152 -174 0 
-52 -47 -152 -110 0 
-101 186 76 173 0 
-101 51 76 173 0 
-101 51 186 173 0 
-101 51 186 76 0 
-101 -186 -76 -173 0 
-101 -51 -76 -173 0 
-101 -51 -186 -173 0 
-101 -51 -186 -76 0 
-176 81 170 187 0 
-176 45 170 187 0 
-176 45 81 187 0 
-176 45 81 170 0 
-176 -81 -170 -187 0 
-176 -45 -170 -187 0 
-176 -45 -81 -187 0 
-176 -45 -81 -170 0 
-77 79 166 163 0 
-77 22 166 163 0 
-77 22 79 163 0 
-77 22 79 166 0 
-77 -79 -166 -163 0 
-77 -22 -166 -163 0 
-77 -22 -79 -163 0 
-77 -22 -79 -166 0 
-2 137 66 140 0 
-2 180 66 140 0 
-2 180 137 140 0 
-2 180 137 66 0 
-2 -137 -66 -140 0 
-2 -180 -66 -140 0 
-2 -180 -137 -140 0 
-2 -180 -137 -66 0 
-195 76 129 106 0 
-195 173 129 106 0 
-195 173 76 106 0 
-195 173 76 129 0 
-195 -76 -129 -106 0 
-195 -173 -129 -106 0 
-195 -173 -76 -106 0 
-195 -173 -76 -129 0 
-179 170 27 177 0 
-179 187 27 177 0 
-179 187 170 177 0 
-179 187 170 27 0 
-179 -170 -27 -177 0 
-179 -187 -27 -177 0 
-179 -187 -170 -177 0 
-179 -187 -170 -27 0 
-166 172 18 160 0 
-166 77 18 160 0 
-166 77 172 160 0 
-166 77 172 18 0 
-166 -172 -18 -160 0 
-166 -77 -18 -160 0 
-166 -77 -172 -160 0 
-166 -77 -172 -18 0 
-66 24 58 167 0 
-66 2 58 167 0 
-66 2 24 167 0 
-66 2 24 58 0 
-66 -24 -58 -167 0 
-66 -2 -58 -167 0 
-66 -2 -24 -167 0 
-66 -2 -24 -58 0 
-117 80 73 0 
-117 67 73 0 
-117 67 80 0 
-117 -67 -80 -73 0 
-87 72 139 0 
-87 39 139 0 
-87 39 72 0 
-87 -39 -72 -139 0 
-95 11 190 0 
-95 194 190 0 
-95 194 11 0 
-95 -194 -11 -190 0 
-7 156 148 0 
-7 19 148 0 
-7 19 156 0 
-7 -19 -156 -148 0 
-178 74 132 130 0 
-178 116 132 130 0 
-178 116 74 130 0 
-178 116 74 132 0 
-178 -74 -132 -130 0 
-178 -116 -132 -130 0 
-178 -116 -74 -130 0 
-178 -116 -74 -132 0 
-121 193 92 119 0 
-121 144 92 119 0 
-121 144 193 119 0 
-121 144 193 92 0 
-121 -193 -92 -119 0 
-121 -144 -92 -119 0 
-121 -144 -193 -119 0 
-121 -144 -193 -92 0 
-70 109 69 23 0 
-70 13 69 23 0 
-70 13 109 23 0 
-70 13 109 69 0 
-70 -109 -69 -23 0 
-70 -13 -69 -23 0 
-70 -13 -109 -23 0 
-70 -13 -109 -69 0 
-110 198 17 61 0 
-110 52 17 61 0 
-110 52 198 61 0 
-110 52 198 17 0 
-110 -198 -17 -61 0 
-110 -52 -17 -61 0 
-110 -52 -198 -61 0 
-110 -52 -198 -17 0 
-75 126 1 69 0 
-75 109 1 69 0 
-75 109 126 69 0 
-75 109 126 1 0 
-75 -126 -1 -69 0 
-75 -109 -1 -69 0 
-75 -109 -126 -69 0 
-75 -109 -126 -1 0 
-16 78 103 17 0 
-16 198 103 17 0 
-16 198 78 17 0 
-16 198 78 103 0 
-16 -78 -103 -17 0 
-16 -198 -103 -17 0 
-16 -198 -78 -17 0 
-16 -198 -78 -103 0 
-51 147 101 40 0 
-51 11 101 40 0 
-51 11 147 40 0 
-51 11 147 101 0 
-51 -147 -101 -40 0 
-51 -11 -101 -40 0 
-51 -11 -147 -40 0 
-51 -11 -147 -101 0 
-45 131 176 114 0 
-45 156 176 114 0 
-45 156 131 114 0 
-45 156 131 176 0 
-45 -131 -176 -114 0 
-45 -156 -176 -114 0 
-45 -156 -131 -114 0 
-45 -156 -131 -176 0 
-22 43 77 28 0 
-22 102 77 28 0 
-22 102 43 28 0 
-22 102 43 77 0 
-22 -43 -77 -28 0 
-22 -102 -77 -28 0 
-22 -102 -43 -28 0 
-22 -102 -43 -77 0 
-180 93 2 159 0 
-180 158 2 159 0 
-180 158 93 159 0 
-180 158 93 2 0 
-180 -93 -2 -159 0 
-180 -158 -2 -159 0 
-180 -158 -93 -159 0 
-180 -158 -93 -2 0 
-62 182 181 0 
-62 9 181 0 
-62 9 182 0 
-62 -9 -182 -181 0 
-63 65 8 0 
-63 124 8 0 
-63 124 65 0 
-63 -124 -65 -8 0 
-89 153 109 13 0 
-89 94 109 13 0 
-89 94 153 13 0 
-89 94 153 109 0 
-89 -153 -109 -13 0 
-89 -94 -109 -13 0 
-89 -94 -153 -13 0 
-89 -94 -153 -109 0 
-152 84 198 52 0 
-152 68 198 52 0 
-152 68 84 52 0 
-152 68 84 198 0 
-152 -84 -198 -52 0 
-152 -68 -198 -52 0 
-152 -68 -84 -52 0 
-152 -68 -84 -198 0 
-44 118 182 9 0 
-44 129 182 9 0 
-44 129 118 9 0 
-44 129 118 182 0 
-44 -118 -182 -9 0 
-44 -129 -182 -9 0 
-44 -129 -118 -9 0 
-44 -129 -118 -182 0 
-56 4 65 124 0 
-56 27 65 124 0 
-56 27 4 124 0 
-56 27 4 65 0 
-56 -4 -65 -124 0 
-56 -27 -65 -124 0 
-56 -27 -4 -124 0 
-56 -27 -4 -65 0 
-132 143 107 0 
-132 178 107 0 
-132 178 143 0 
-132 -178 -143 -107 0 
-92 88 108 0 
-92 121 108 0 
-92 121 88 0 
-92 -121 -88 -108 0 
-69 75 120 85 0 
-69 70 120 85 0 
-69 70 75 85 0 
-69 70 75 120 0 
-69 -75 -120 -85 0 
-69 -70 -120 -85 0 
-69 -70 -75 -85 0 
-69 -70 -75 -120 0 
-17 16 10 161 0 
-17 110 10 161 0 
-17 110 16 161 0 
-17 110 16 10 0 
-17 -16 -10 -161 0 
-17 -110 -10 -161 0 
-17 -110 -16 -161 0 
-17 -110 -16 -10 0 
-181 130 35 0 
-181 62 35 0 
-181 62 130 0 
-181 -62 -130 -35 0 
-8 119 192 0 
-8 63 192 0 
-8 63 119 0 
-8 -63 -119 -192 0 
-26 55 200 64 0 
-26 151 200 64 0 
-26 151 55 64 0 
-26 151 55 200 0 
-26 -55 -200 -64 0 
-26 -151 -200 -64 0 
-26 -151 -55 -64 0 
-26 -151 -55 -200 0 
-123 138 14 33 0 
-123 155 14 33 0 
-123 155 138 33 0 
-123 155 138 14 0 
-123 -138 -14 -33 0 
-123 -155 -14 -33 0 
-123 -155 -138 -33 0 
-123 -155 -138 -14 0 
-100 173 106 0 
-100 57 106 0 
-100 57 173 0 
-100 -57 -173 -106 0 
-168 187 177 0 
-168 37 177 0 
-168 37 187 0 
-168 -37 -187 -177 0 
-86 160 188 185 0 
-86 164 188 185 0 
-86 164 160 185 0 
-86 164 160 188 0 
-86 -160 -188 -185 0 
-86 -164 -188 -185 0 
-86 -164 -160 -185 0 
-86 -164 -160 -188 0 
-50 167 71 97 0 
-50 32 71 97 0 
-50 32 167 97 0 
-50 32 167 71 0 
-50 -167 -71 -97 0 
-50 -32 -71 -97 0 
-50 -32 -167 -97 0 
-50 -32 -167 -71 0 
-57 40 100 0 
-57 197 100 0 
-57 197 40 0 
-57 -197 -40 -100 0 
-37 114 168 0 
-37 154 168 0 
-37 154 114 0 
-37 -154 -114 -168 0 
-200 104 48 118 0 
-200 26 48 118 0 
-200 26 104 118 0 
-200 26 104 48 0 
-200 -104 -48 -118 0 
-200 -26 -48 -118 0 
-200 -26 -104 -118 0 
-200 -26 -104 -48 0 
-14 157 122 4 0 
-14 123 122 4 0 
-14 123 157 4 0 
-14 123 157 122 0 
-14 -157 -122 -4 0 
-14 -123 -122 -4 0 
-14 -123 -157 -4 0 
-14 -123 -157 -122 0 
-74 184 143 178 0 
-74 48 143 178 0 
-74 48 184 178 0 
-74 48 184 143 0 
-74 -184 -143 -178 0 
-74 -48 -143 -178 0 
-74 -48 -184 -178 0 
-74 -48 -184 -143 0 
-193 165 88 121 0 
-193 122 88 121 0 
-193 122 165 121 0 
-193 122 165 88 0 
-193 -165 -88 -121 0 
-193 -122 -88 -121 0 
-193 -122 -165 -121 0 
-193 -122 -165 -88 0 
-55 3 104 26 0 
-55 149 104 26 0 
-55 149 3 26 0 
-55 149 3 104 0 
-55 -3 -104 -26 0 
-55 -149 -104 -26 0 
-55 -149 -3 -26 0 
-55 -149 -3 -104 0 
-138 96 157 123 0 
-138 6 157 123 0 
-138 6 96 123 0 
-138 6 96 157 0 
-138 -96 -157 -123 0 
-138 -6 -157 -123 0 
-138 -6 -96 -123 0 
-138 -6 -96 -157 0 
-199 80 102 128 0 
-199 73 102 128 0 
-199 73 80 128 0 
-199 73 80 102 0 
-199 -80 -102 -128 0 
-199 -73 -102 -128 0 
-199 -73 -80 -128 0 
-199 -73 -80 -102 0 
-59 72 158 25 0 
-59 139 158 25 0 
-59 139 72 25 0 
-59 139 72 158 0 
-59 -72 -158 -25 0 
-59 -139 -158 -25 0 
-59 -139 -72 -25 0 
-59 -139 -72 -158 0 
-188 83 20 0 
-188 86 20 0 
-188 86 83 0 
-188 -86 -83 -20 0 
-71 98 196 0 
-71 50 196 0 
-71 50 98 0 
-71 -50 -98 -196 0 
-173 101 195 100 0 
-173 40 195 100 0 
-173 40 101 100 0 
-173 40 101 195 0 
-173 -101 -195 -100 0 
-173 -40 -195 -100 0 
-173 -40 -101 -100 0 
-173 -40 -101 -195 0 
-187 176 179 168 0 
-187 114 179 168 0 
-187 114 176 168 0 
-187 114 176 179 0 
-187 -176 -179 -168 0 
-187 -114 -179 -168 0 
-187 -114 -176 -168 0 
-187 -114 -176 -179 0 
-182 116 130 62 0 
-182 44 130 62 0 
-182 44 116 62 0 
-182 44 116 130 0 
-182 -116 -130 -62 0 
-182 -44 -130 -62 0 
-182 -44 -116 -62 0 
-182 -44 -116 -130 0 
-65 144 119 63 0 
-65 56 119 63 0 
-65 56 144 63 0 
-65 56 144 119 0 
-65 -144 -119 -63 0 
-65 -56 -119 -63 0 
-65 -56 -144 -63 0 
-65 -56 -144 -119 0 
-141 67 145 0 
-141 150 145 0 
-141 150 67 0 
-141 -150 -67 -145 0 
-54 39 115 0 
-54 134 115 0 
-54 134 39 0 
-54 -134 -39 -115 0 
-142 102 28 112 0 
-142 128 28 112 0 
-142 128 102 112 0 
-142 128 102 28 0 
-142 -102 -28 -112 0 
-142 -128 -28 -112 0 
-142 -128 -102 -112 0 
-142 -128 -102 -28 0 
-21 158 159 12 0 
-21 25 159 12 0 
-21 25 158 12 0 
-21 25 158 159 0 
-21 -158 -159 -12 0 
-21 -25 -159 -12 0 
-21 -25 -158 -12 0 
-21 -25 -158 -159 0 
-30 145 60 0 
-30 150 60 0 
-30 150 145 0 
-30 -150 -145 -60 0 
-169 115 36 0 
-169 134 36 0 
-169 134 115 0 
-169 -134 -115 -36 0 
-73 117 199 126 0 
-73 191 199 126 0 
-73 191 117 126 0 
-73 191 117 199 0 
-73 -117 -199 -126 0 
-73 -191 -199 -126 0 
-73 -191 -117 -126 0 
-73 -191 -117 -199 0 
-139 87 59 78 0 
-139 183 59 78 0 
-139 183 87 78 0 
-139 183 87 59 0 
-139 -87 -59 -78 0 
-139 -183 -59 -78 0 
-139 -183 -87 -78 0 
-139 -183 -87 -59 0 
-11 111 51 15 0 
-11 95 51 15 0 
-11 95 111 15 0 
-11 95 111 51 0 
-11 -111 -51 -15 0 
-11 -95 -51 -15 0 
-11 -95 -111 -15 0 
-11 -95 -111 -51 0 
-156 38 45 133 0 
-156 7 45 133 0 
-156 7 38 133 0 
-156 7 38 45 0 
-156 -38 -45 -133 0 
-156 -7 -45 -133 0 
-156 -7 -38 -133 0 
-156 -7 -38 -45 0 
-151 149 26 76 0 
-151 186 26 76 0 
-151 186 149 76 0 
-151 186 149 26 0 
-151 -149 -26 -76 0 
-151 -186 -26 -76 0 
-151 -186 -149 -76 0 
-151 -186 -149 -26 0 
-155 6 123 170 0 
-155 81 123 170 0 
-155 81 6 170 0 
-155 81 6 123 0 
-155 -6 -123 -170 0 
-155 -81 -123 -170 0 
-155 -81 -6 -170 0 
-155 -81 -6 -123 0 
-48 53 74 116 0 
-48 200 74 116 0 
-48 200 53 116 0 
-48 200 53 74 0 
-48 -53 -74 -116 0 
-48 -200 -74 -116 0 
-48 -200 -53 -116 0 
-48 -200 -53 -74 0 
-122 5 193 144 0 
-122 14 193 144 0 
-122 14 5 144 0 
-122 14 5 193 0 
-122 -5 -193 -144 0 
-122 -14 -193 -144 0 
-122 -14 -5 -144 0 
-122 -14 -5 -193 0 
-85 69 149 186 0 
-85 23 149 186 0 
-85 23 69 186 0 
-85 23 69 149 0 
-85 -69 -149 -186 0 
-85 -23 -149 -186 0 
-85 -23 -69 -186 0 
-85 -23 -69 -149 0 
-161 17 6 81 0 
-161 61 6 81 0 
-161 61 17 81 0 
-161 61 17 6 0 
-161 -17 -6 -81 0 
-161 -61 -6 -81 0 
-161 -61 -17 -81 0 
-161 -61 -17 -6 0 
-126 73 128 75 0 
-126 105 128 75 0 
-126 105 73 75 0 
-126 105 73 128 0 
-126 -73 -128 -75 0 
-126 -105 -128 -75 0 
-126 -105 -73 -75 0 
-126 -105 -73 -128 0 
-78 139 25 16 0 
-78 90 25 16 0 
-78 90 139 16 0 
-78 90 139 25 0 
-78 -139 -25 -16 0 
-78 -90 -25 -16 0 
-78 -90 -139 -16 0 
-78 -90 -139 -25 0 
-109 105 75 70 0 
-109 89 75 70 0 
-109 89 105 70 0 
-109 89 105 75 0 
-109 -105 -75 -70 0 
-109 -89 -75 -70 0 
-109 -89 -105 -70 0 
-109 -89 -105 -75 0 
-198 90 16 110 0 
-198 152 16 110 0 
-198 152 90 110 0 
-198 152 90 16 0 
-198 -90 -16 -110 0 
-198 -152 -16 -110 0 
-198 -152 -90 -110 0 
-198 -152 -90 -16 0 
-23 70 85 147 0 
-23 29 85 147 0 
-23 29 70 147 0 
-23 29 70 85 0 
-23 -70 -85 -147 0 
-23 -29 -85 -147 0 
-23 -29 -70 -147 0 
-23 -29 -70 -85 0 
-61 110 161 131 0 
-61 174 161 131 0 
-61 174 110 131 0 
-61 174 110 161 0 
-61 -110 -161 -131 0 
-61 -174 -161 -131 0 
-61 -174 -110 -131 0 
-61 -174 -110 -161 0 
-106 195 82 0 
-106 100 82 0 
-106 100 195 0 
-106 -100 -195 -82 0 
-177 179 113 0 
-177 168 113 0 
-177 168 179 0 
-177 -168 -179 -113 0 
170 123 4 27 0 
-4 -27 0 
-123 -27 0 
-123 -4 0 
-170 -27 0 
-170 -4 0 
-170 -123 0 
-34 28 164 91 0 
-34 112 164 91 0 
-34 112 28 91 0 
-34 112 28 164 0 
-34 -28 -164 -91 0 
-34 -112 -164 -91 0 
-34 -112 -28 -91 0 
-34 -112 -28 -164 0 
-171 159 32 189 0 
-171 12 32 189 0 
-171 12 159 189 0 
-171 12 159 32 0 
-171 -159 -32 -189 0 
-171 -12 -32 -189 0 
-171 -12 -159 -189 0 
-171 -12 -159 -32 0 
-184 185 46 74 0 
-184 53 46 74 0 
-184 53 185 74 0 
-184 53 185 46 0 
-184 -185 -46 -74 0 
-184 -53 -46 -74 0 
-184 -53 -185 -74 0 
-184 -53 -185 -46 0 
-165 97 146 193 0 
-165 5 146 193 0 
-165 5 97 193 0 
-165 5 97 146 0 
-165 -97 -146 -193 0 
-165 -5 -146 -193 0 
-165 -5 -97 -193 0 
-165 -5 -97 -146 0 
-197 15 57 0 
-197 99 57 0 
-197 99 15 0 
-197 -99 -15 -57 0 
-154 133 37 0 
-154 162 37 0 
-154 162 133 0 
-154 -162 -133 -37 0 
-9 44 62 0 
-9 82 62 0 
-9 82 44 0 
-9 -82 -44 -62 0 
-124 56 63 0 
-124 113 63 0 
-124 113 56 0 
-124 -113 -56 -63 0 
-43 79 22 0 
-43 136 22 0 
-43 136 79 0 
-43 -136 -79 -22 0 
-93 137 180 0 
-93 135 180 0 
-93 135 137 0 
-93 -135 -137 -180 0 
-67 117 191 0 
-67 141 191 0 
-67 141 117 0 
-67 -141 -117 -191 0 
-39 87 183 0 
-39 54 183 0 
-39 54 87 0 
-39 -54 -87 -183 0 
-136 43 102 0 
-136 80 102 0 
-136 80 43 0 
-136 -80 -43 -102 0 
-135 93 158 0 
-135 72 158 0 
-135 72 93 0 
-135 -72 -93 -158 0 
-164 163 86 42 0 
-164 34 86 42 0 
-164 34 163 42 0 
-164 34 163 86 0 
-164 -163 -86 -42 0 
-164 -34 -86 -42 0 
-164 -34 -163 -42 0 
-164 -34 -163 -86 0 
-32 140 50 49 0 
-32 171 50 49 0 
-32 171 140 49 0 
-32 171 140 50 0 
-32 -140 -50 -49 0 
-32 -171 -50 -49 0 
-32 -171 -140 -49 0 
-32 -171 -140 -50 0 
-82 129 9 0 
-82 106 9 0 
-82 106 129 0 
-82 -106 -129 -9 0 
-113 27 124 0 
-113 177 124 0 
-113 177 27 0 
-113 -177 -27 -124 0 
-143 46 132 0 
-143 74 132 0 
-143 74 46 0 
-143 -74 -46 -132 0 
-88 146 92 0 
-88 193 92 0 
-88 193 146 0 
-88 -193 -146 -92 0 
-191 67 73 105 0 
-191 145 73 105 0 
-191 145 67 105 0 
-191 145 67 73 0 
-191 -67 -73 -105 0 
-191 -145 -73 -105 0 
-191 -145 -67 -105 0 
-191 -145 -67 -73 0 
-183 39 139 90 0 
-183 115 139 90 0 
-183 115 39 90 0 
-183 115 39 139 0 
-183 -39 -139 -90 0 
-183 -115 -139 -90 0 
-183 -115 -39 -90 0 
-183 -115 -39 -139 0 
-80 136 199 0 
-80 117 199 0 
-80 117 136 0 
-80 -117 -136 -199 0 
-72 135 59 0 
-72 87 59 0 
-72 87 135 0 
-72 -87 -135 -59 0 
-105 191 126 109 0 
-105 153 126 109 0 
-105 153 191 109 0 
-105 153 191 126 0 
-105 -191 -126 -109 0 
-105 -153 -126 -109 0 
-105 -153 -191 -109 0 
-105 -153 -191 -126 0 
-90 183 78 198 0 
-90 84 78 198 0 
-90 84 183 198 0 
-90 84 183 78 0 
-90 -183 -78 -198 0 
-90 -84 -78 -198 0 
-90 -84 -183 -198 0 
-90 -84 -183 -78 0 
-190 15 99 0 
-190 95 99 0 
-190 95 15 0 
-190 -95 -15 -99 0 
-148 133 162 0 
-148 7 162 0 
-148 7 133 0 
-148 -7 -133 -162 0 
-42 164 185 53 0 
-42 91 185 53 0 
-42 91 164 53 0 
-42 91 164 185 0 
-42 -164 -185 -53 0 
-42 -91 -185 -53 0 
-42 -91 -164 -53 0 
-42 -91 -164 -185 0 
-49 32 97 5 0 
-49 189 97 5 0 
-49 189 32 5 0 
-49 189 32 97 0 
-49 -32 -97 -5 0 
-49 -189 -97 -5 0 
-49 -189 -32 -5 0 
-49 -189 -32 -97 0 
-3 112 91 55 0 
-3 120 91 55 0 
-3 120 112 55 0 
-3 120 112 91 0 
-3 -112 -91 -55 0 
-3 -120 -91 -55 0 
-3 -120 -112 -55 0 
-3 -120 -112 -91 0 
-96 12 189 138 0 
-96 10 189 138 0 
-96 10 12 138 0 
-96 10 12 189 0 
-96 -12 -189 -138 0 
-96 -10 -189 -138 0 
-96 -10 -12 -138 0 
-96 -10 -12 -189 0 
-129 64 44 82 0 
-129 195 44 82 0 
-129 195 64 82 0 
-129 195 64 44 0 
-129 -64 -44 -82 0 
-129 -195 -44 -82 0 
-129 -195 -64 -82 0 
-129 -195 -64 -44 0 
-27 33 56 113 0 
-27 179 56 113 0 
-27 179 33 113 0 
-27 179 33 56 0 
-27 -33 -56 -113 0 
-27 -179 -56 -113 0 
-27 -179 -33 -113 0 
-27 -179 -33 -56 0 
-172 125 166 0 
-172 79 166 0 
-172 79 125 0 
-172 -79 -125 -166 0 
-24 31 66 0 
-24 137 66 0 
-24 137 31 0 
-24 -137 -31 -66 0 
-40 51 173 57 0 
-40 15 173 57 0 
-40 15 51 57 0 
-40 15 51 173 0 
-40 -51 -173 -57 0 
-40 -15 -173 -57 0 
-40 -15 -51 -57 0 
-40 -15 -51 -173 0 
-114 45 187 37 0 
-114 133 187 37 0 
-114 133 45 37 0 
-114 133 45 187 0 
-114 -45 -187 -37 0 
-114 -133 -187 -37 0 
-114 -133 -45 -37 0 
-114 -133 -45 -187 0 
-79 172 77 0 
-79 43 77 0 
-79 43 172 0 
-79 -43 -172 -77 0 
-137 24 2 0 
-137 93 2 0 
-137 93 24 0 
-137 -93 -24 -2 0 
-118 200 116 44 0 
-118 64 116 44 0 
-118 64 200 44 0 
-118 64 200 116 0 
-118 -200 -116 -44 0 
-118 -64 -116 -44 0 
-118 -64 -200 -44 0 
-118 -64 -200 -116 0 
-4 14 144 56 0 
-4 33 144 56 0 
-4 33 14 56 0 
-4 33 14 144 0 
-4 -14 -144 -56 0 
-4 -33 -144 -56 0 
-4 -33 -14 -56 0 
-4 -33 -14 -144 0 
-15 11 40 197 0 
-15 190 40 197 0 
-15 190 11 197 0 
-15 190 11 40 0 
-15 -11 -40 -197 0 
-15 -190 -40 -197 0 
-15 -190 -11 -197 0 
-15 -190 -11 -40 0 
-133 156 114 154 0 
-133 148 114 154 0 
-133 148 156 154 0 
-133 148 156 114 0 
-133 -156 -114 -154 0 
-133 -148 -114 -154 0 
-133 -148 -156 -154 0 
-133 -148 -156 -114 0 
-35 107 0 
-35 181 0 
-192 108 0 
-192 8 0 
-125 18 0 
-125 172 0 
-31 58 0 
-31 24 0 
-41 13 127 0 
-41 94 127 0 
-41 94 13 0 
-41 -94 -13 -127 0 
-47 52 175 0 
-47 68 175 0 
-47 68 52 0 
-47 -68 -52 -175 0 
